objective value:                                    0
delta[1,11]*                                       10 	(obj:0)
delta[0,12]*                                       10 	(obj:0)
mu[1,11,373]*                       0.621033801132222 	(obj:0)
mu[0,12,385]*                        1.84185915935376 	(obj:0)
mu[0,12,391]*                        1.68344269956119 	(obj:0)
mu[0,12,397]*                        2.93022530604054 	(obj:0)
mu[0,12,402]*                       0.426647949546033 	(obj:0)
mu[0,12,406]*                        1.11925413553759 	(obj:0)
mu[1,11,410]*                       0.708212668212465 	(obj:0)
mu[0,12,411]*                        1.15209579457576 	(obj:0)
mu[1,11,417]*                        8.67075353065531 	(obj:0)
mu[0,12,418]*                       0.511039329058585 	(obj:0)
mu[0,12,421]*                       0.335435626326535 	(obj:0)
